15
45
765
661
680
785
666
783
732
753
601
811
695
721
754
700
1112
27	27
861	861
286	286
226	226
985	985
360	360
58	58
601	601
933	933
946	946
569	569
195	195
533	533
115	115
666	666
582	582
914	914
450	450
120	120
68	68
706	706
564	564
78	78
968	968
252	252
33	33
470	470
104	104
769	769
468	468
241	241
108	108
971	971
37	37
877	877
447	447
74	74
849	849
875	875
323	323
713	713
989	989
565	565
937	937
525	525
